networks/zoo_26_65/zoo_26_65.txt
Number of groups: 12
Flow 3: {3 2} {2 5} {5 18} 
Flow 5: {1 8} {8 7} {7 20} 
Flow 9: {12 13} {13 26} 
Flow 12: {2 3} {3 1} 
Flow 18: {5 13} {13 7} {7 6} {6 19} 
Flow 24: {7 13} {13 5} {5 2} {2 15} 
Flow 25: {6 10} {10 12} {12 1} {1 3} {3 16} 
Flow 37: {13 12} {12 11} {11 24} 
Flow 40: {8 1} {1 12} {12 25} 
Flow 41: {9 10} 
Flow 47: {10 6} {6 7} {7 8} {8 21} 
Flow 57: {12 10} {10 23} 
Time taken running everything: 1 seconds
