networks/zoo_26_65/zoo_26_65.sol
<?xml version = "1.0" encoding="UTF-8" standalone="yes"?>
<CPLEXSolution version="1.2">
 <header
   problemName="networks/zoo_26_65/zoo_26_65.lp"
   solutionName="incumbent"
   solutionIndex="-1"
   objectiveValue="12"
   solutionTypeValue="3"
   solutionTypeString="primal"
   solutionStatusValue="101"
   solutionStatusString="integer optimal solution"
   solutionMethodString="mip"
   primalFeasible="1"
   dualFeasible="1"
   MIPNodes="0"
   MIPIterations="710"
   writeLevel="3"/>
 <quality
   epInt="1.0000000000000001e-05"
   epRHS="9.9999999999999995e-07"
   maxIntInfeas="0"
   maxPrimalInfeas="8.8817841970012523e-16"
   maxX="4"
   maxSlack="10"/>
 <variables>
  <variable name="Y(3,5)" index="47" value="1"/>
  <variable name="Y(5,7)" index="93" value="1"/>
  <variable name="Y(9,13)" index="187" value="1"/>
  <variable name="Y(12,3)" index="244" value="1"/>
  <variable name="Y(18,6)" index="378" value="1"/>
  <variable name="Y(24,2)" index="507" value="1"/>
  <variable name="Y(25,3)" index="530" value="1"/>
  <variable name="Y(37,11)" index="801" value="1"/>
  <variable name="Y(40,12)" index="868" value="1"/>
  <variable name="Y(41,9)" index="887" value="1"/>
  <variable name="Y(47,8)" index="1018" value="1"/>
  <variable name="Y(57,10)" index="1240" value="1"/>
  <variable name="X(1,3,25)" index="1454" value="1"/>
  <variable name="X(1,8,5)" index="1499" value="1"/>
  <variable name="X(1,12,40)" index="1599" value="1"/>
  <variable name="X(2,3,12)" index="1636" value="1"/>
  <variable name="X(2,5,3)" index="1692" value="1"/>
  <variable name="X(2,15,24)" index="1778" value="1"/>
  <variable name="X(3,1,12)" index="1831" value="1"/>
  <variable name="X(3,2,3)" index="1887" value="1"/>
  <variable name="X(3,16,25)" index="1974" value="1"/>
  <variable name="X(5,2,24)" index="2038" value="1"/>
  <variable name="X(5,13,18)" index="2097" value="1"/>
  <variable name="X(5,18,3)" index="2147" value="1"/>
  <variable name="X(6,7,47)" index="2256" value="1"/>
  <variable name="X(6,10,25)" index="2299" value="1"/>
  <variable name="X(6,19,18)" index="2357" value="1"/>
  <variable name="X(7,6,18)" index="2422" value="1"/>
  <variable name="X(7,8,47)" index="2516" value="1"/>
  <variable name="X(7,13,24)" index="2558" value="1"/>
  <variable name="X(7,20,5)" index="2604" value="1"/>
  <variable name="X(8,1,40)" index="2704" value="1"/>
  <variable name="X(8,7,5)" index="2734" value="1"/>
  <variable name="X(8,21,47)" index="2841" value="1"/>
  <variable name="X(9,10,41)" index="2900" value="1"/>
  <variable name="X(10,6,47)" index="2971" value="1"/>
  <variable name="X(10,12,25)" index="3014" value="1"/>
  <variable name="X(10,23,57)" index="3111" value="1"/>
  <variable name="X(11,24,37)" index="3156" value="1"/>
  <variable name="X(12,1,25)" index="3209" value="1"/>
  <variable name="X(12,10,57)" index="3306" value="1"/>
  <variable name="X(12,11,37)" index="3351" value="1"/>
  <variable name="X(12,13,9)" index="3388" value="1"/>
  <variable name="X(12,25,40)" index="3484" value="1"/>
  <variable name="X(13,5,24)" index="3533" value="1"/>
  <variable name="X(13,7,18)" index="3592" value="1"/>
  <variable name="X(13,12,37)" index="3676" value="1"/>
  <variable name="X(13,26,9)" index="3713" value="1"/>
  <variable name="C(3,2)" index="3777" value="1"/>
  <variable name="C(3,5)" index="3778" value="1.9999999999999991"/>
  <variable name="C(5,8)" index="3784" value="1"/>
  <variable name="C(5,7)" index="3785" value="2"/>
  <variable name="C(9,13)" index="3795" value="1"/>
  <variable name="C(12,3)" index="3803" value="1"/>
  <variable name="C(18,13)" index="3822" value="1"/>
  <variable name="C(18,7)" index="3823" value="2"/>
  <variable name="C(18,6)" index="3824" value="3"/>
  <variable name="C(24,13)" index="3843" value="1"/>
  <variable name="C(24,5)" index="3844" value="2"/>
  <variable name="C(24,2)" index="3845" value="3"/>
  <variable name="C(25,10)" index="3847" value="1"/>
  <variable name="C(25,12)" index="3848" value="2"/>
  <variable name="C(25,1)" index="3849" value="3"/>
  <variable name="C(25,3)" index="3850" value="4"/>
  <variable name="C(37,12)" index="3887" value="1"/>
  <variable name="C(37,11)" index="3888" value="2"/>
  <variable name="C(40,1)" index="3895" value="1"/>
  <variable name="C(40,12)" index="3896" value="2"/>
  <variable name="C(47,6)" index="3919" value="1"/>
  <variable name="C(47,7)" index="3920" value="2"/>
  <variable name="C(47,8)" index="3921" value="3"/>
  <variable name="C(57,10)" index="3950" value="1"/>
 </variables>
</CPLEXSolution>
